p tw 57 398
0 1
0 2
0 3
0 4
0 5
0 6
0 10
0 20
0 45
0 46
0 12
0 17
0 28
0 53
0 24
0 49
0 15
0 37
0 54
1 2
1 3
1 4
1 5
1 6
1 11
1 12
1 41
2 3
2 4
2 15
2 29
2 30
2 31
3 4
3 6
3 27
3 41
3 44
3 14
3 21
3 39
3 11
3 12
3 5
3 24
3 49
3 17
3 52
3 55
4 5
4 6
4 19
4 23
4 24
4 14
4 29
4 40
4 47
4 12
4 20
4 32
4 42
4 9
4 49
4 8
4 50
4 51
4 35
4 53
4 31
4 41
5 6
5 19
5 23
5 24
5 8
5 14
5 15
5 25
5 49
5 10
5 33
5 36
5 50
6 18
6 20
6 21
6 22
6 24
6 27
6 41
6 44
6 9
6 40
6 49
6 25
6 39
6 43
6 12
7 8
7 9
7 10
7 11
7 13
7 36
7 37
7 38
8 9
8 10
8 11
8 13
8 17
8 18
8 19
8 15
8 30
8 32
8 22
8 33
8 37
8 29
8 50
8 51
8 14
8 25
9 10
9 11
9 15
9 30
9 32
9 40
9 49
9 12
9 18
9 24
9 29
9 52
9 27
9 43
9 46
10 11
10 28
10 33
10 34
10 35
10 20
10 45
10 46
10 15
10 40
10 41
10 42
10 36
10 50
11 12
11 41
12 13
12 14
12 15
12 16
12 41
12 20
12 32
12 42
12 17
12 28
12 53
12 33
12 47
12 18
13 14
13 15
13 16
13 17
13 18
13 19
13 36
13 37
13 38
13 27
13 29
13 40
13 44
13 21
13 22
13 33
14 15
14 16
14 21
14 39
14 40
14 27
14 29
14 47
14 25
15 16
15 29
15 30
15 31
15 32
15 21
15 39
15 40
15 25
15 28
15 37
15 54
15 41
15 42
15 18
16 30
16 42
16 43
16 44
17 18
17 19
17 28
17 53
17 21
17 22
17 33
17 20
17 30
17 32
17 52
17 55
17 23
17 29
17 47
17 56
18 19
18 20
18 21
18 22
18 24
18 27
18 41
18 28
18 29
18 30
19 23
19 24
19 29
19 35
19 53
20 21
20 22
20 45
20 46
20 32
20 42
20 30
21 22
21 39
21 40
21 27
21 46
21 48
21 33
21 24
21 34
21 37
22 30
22 33
22 37
22 32
23 24
23 38
23 42
23 49
23 29
23 47
23 56
24 25
24 26
24 27
24 28
24 41
24 49
24 38
24 42
24 34
24 37
24 29
24 52
24 35
24 46
25 26
25 27
25 28
25 39
25 41
25 43
25 35
25 46
25 49
26 27
26 28
26 34
26 44
26 45
26 52
27 28
27 41
27 44
27 39
27 29
27 40
27 34
27 37
27 43
27 46
27 52
28 33
28 34
28 35
28 53
28 37
28 54
28 29
28 30
29 30
29 31
29 40
29 47
29 50
29 51
29 44
29 35
29 53
29 41
29 52
29 56
30 31
30 32
30 42
30 43
30 44
30 33
30 37
31 41
31 51
32 42
33 34
33 35
33 37
33 41
33 47
33 36
33 50
34 35
34 44
34 45
34 52
34 37
35 53
35 46
35 49
36 37
36 38
36 50
37 38
37 54
38 42
38 49
39 40
39 46
39 48
39 41
39 43
40 47
40 46
40 48
40 49
40 44
40 41
40 42
41 44
41 47
41 43
41 51
41 42
42 43
42 44
42 49
43 44
43 46
43 52
44 45
44 52
45 46
45 52
46 48
46 49
46 52
47 56
50 51
52 55
